language ESSENCE' 1.0
letting w be 7
letting n be 63
letting noCrates be 1
letting noGoals be 1
letting pInit be 12
letting stps be 9
letting crates be [25]
letting goals be [33]
letting noWalls be 28
letting walls be [0, 1, 2, 3, 4, 5, 6, 7, 13, 14, 20, 21, 27, 28, 34, 35, 41, 42, 48, 49, 55, 56, 57, 58, 59, 60, 61, 62]